p cnf 90 510
1 2 3 0
4 5 6 0
7 8 9 0
10 11 12 0
13 14 15 0
16 17 18 0
19 20 21 0
22 23 24 0
25 26 27 0
28 29 30 0
31 32 33 0
34 35 36 0
37 38 39 0
40 41 42 0
43 44 45 0
46 47 48 0
49 50 51 0
52 53 54 0
55 56 57 0
58 59 60 0
61 62 63 0
64 65 66 0
67 68 69 0
70 71 72 0
73 74 75 0
76 77 78 0
79 80 81 0
82 83 84 0
85 86 87 0
88 89 90 0
-1 -2 0
-1 -3 0
-2 -3 0
-4 -5 0
-4 -6 0
-5 -6 0
-7 -8 0
-7 -9 0
-8 -9 0
-10 -11 0
-10 -12 0
-11 -12 0
-13 -14 0
-13 -15 0
-14 -15 0
-16 -17 0
-16 -18 0
-17 -18 0
-19 -20 0
-19 -21 0
-20 -21 0
-22 -23 0
-22 -24 0
-23 -24 0
-25 -26 0
-25 -27 0
-26 -27 0
-28 -29 0
-28 -30 0
-29 -30 0
-31 -32 0
-31 -33 0
-32 -33 0
-34 -35 0
-34 -36 0
-35 -36 0
-37 -38 0
-37 -39 0
-38 -39 0
-40 -41 0
-40 -42 0
-41 -42 0
-43 -44 0
-43 -45 0
-44 -45 0
-46 -47 0
-46 -48 0
-47 -48 0
-49 -50 0
-49 -51 0
-50 -51 0
-52 -53 0
-52 -54 0
-53 -54 0
-55 -56 0
-55 -57 0
-56 -57 0
-58 -59 0
-58 -60 0
-59 -60 0
-61 -62 0
-61 -63 0
-62 -63 0
-64 -65 0
-64 -66 0
-65 -66 0
-67 -68 0
-67 -69 0
-68 -69 0
-70 -71 0
-70 -72 0
-71 -72 0
-73 -74 0
-73 -75 0
-74 -75 0
-76 -77 0
-76 -78 0
-77 -78 0
-79 -80 0
-79 -81 0
-80 -81 0
-82 -83 0
-82 -84 0
-83 -84 0
-85 -86 0
-85 -87 0
-86 -87 0
-88 -89 0
-88 -90 0
-89 -90 0
-1 -19 0
-2 -20 0
-3 -21 0
-1 -25 0
-2 -26 0
-3 -27 0
-1 -37 0
-2 -38 0
-3 -39 0
-1 -43 0
-2 -44 0
-3 -45 0
-1 -49 0
-2 -50 0
-3 -51 0
-1 -58 0
-2 -59 0
-3 -60 0
-1 -61 0
-2 -62 0
-3 -63 0
-1 -73 0
-2 -74 0
-3 -75 0
-1 -79 0
-2 -80 0
-3 -81 0
-1 -82 0
-2 -83 0
-3 -84 0
-1 -85 0
-2 -86 0
-3 -87 0
-1 -88 0
-2 -89 0
-3 -90 0
-4 -10 0
-5 -11 0
-6 -12 0
-4 -31 0
-5 -32 0
-6 -33 0
-4 -46 0
-5 -47 0
-6 -48 0
-4 -58 0
-5 -59 0
-6 -60 0
-4 -67 0
-5 -68 0
-6 -69 0
-4 -73 0
-5 -74 0
-6 -75 0
-4 -85 0
-5 -86 0
-6 -87 0
-4 -88 0
-5 -89 0
-6 -90 0
-7 -25 0
-8 -26 0
-9 -27 0
-7 -34 0
-8 -35 0
-9 -36 0
-7 -40 0
-8 -41 0
-9 -42 0
-7 -46 0
-8 -47 0
-9 -48 0
-7 -52 0
-8 -53 0
-9 -54 0
-7 -55 0
-8 -56 0
-9 -57 0
-7 -58 0
-8 -59 0
-9 -60 0
-7 -61 0
-8 -62 0
-9 -63 0
-7 -67 0
-8 -68 0
-9 -69 0
-7 -70 0
-8 -71 0
-9 -72 0
-7 -76 0
-8 -77 0
-9 -78 0
-7 -88 0
-8 -89 0
-9 -90 0
-10 -13 0
-11 -14 0
-12 -15 0
-10 -16 0
-11 -17 0
-12 -18 0
-10 -25 0
-11 -26 0
-12 -27 0
-10 -34 0
-11 -35 0
-12 -36 0
-10 -37 0
-11 -38 0
-12 -39 0
-10 -49 0
-11 -50 0
-12 -51 0
-10 -82 0
-11 -83 0
-12 -84 0
-13 -19 0
-14 -20 0
-15 -21 0
-13 -43 0
-14 -44 0
-15 -45 0
-13 -46 0
-14 -47 0
-15 -48 0
-13 -64 0
-14 -65 0
-15 -66 0
-13 -70 0
-14 -71 0
-15 -72 0
-13 -73 0
-14 -74 0
-15 -75 0
-13 -85 0
-14 -86 0
-15 -87 0
-16 -28 0
-17 -29 0
-18 -30 0
-16 -46 0
-17 -47 0
-18 -48 0
-16 -70 0
-17 -71 0
-18 -72 0
-16 -76 0
-17 -77 0
-18 -78 0
-16 -79 0
-17 -80 0
-18 -81 0
-16 -88 0
-17 -89 0
-18 -90 0
-19 -25 0
-20 -26 0
-21 -27 0
-19 -70 0
-20 -71 0
-21 -72 0
-19 -88 0
-20 -89 0
-21 -90 0
-22 -37 0
-23 -38 0
-24 -39 0
-22 -43 0
-23 -44 0
-24 -45 0
-22 -67 0
-23 -68 0
-24 -69 0
-22 -73 0
-23 -74 0
-24 -75 0
-22 -88 0
-23 -89 0
-24 -90 0
-25 -31 0
-26 -32 0
-27 -33 0
-25 -40 0
-26 -41 0
-27 -42 0
-25 -49 0
-26 -50 0
-27 -51 0
-25 -55 0
-26 -56 0
-27 -57 0
-25 -61 0
-26 -62 0
-27 -63 0
-25 -73 0
-26 -74 0
-27 -75 0
-28 -31 0
-29 -32 0
-30 -33 0
-28 -34 0
-29 -35 0
-30 -36 0
-28 -40 0
-29 -41 0
-30 -42 0
-28 -43 0
-29 -44 0
-30 -45 0
-28 -52 0
-29 -53 0
-30 -54 0
-28 -70 0
-29 -71 0
-30 -72 0
-28 -79 0
-29 -80 0
-30 -81 0
-28 -85 0
-29 -86 0
-30 -87 0
-28 -88 0
-29 -89 0
-30 -90 0
-31 -34 0
-32 -35 0
-33 -36 0
-31 -49 0
-32 -50 0
-33 -51 0
-31 -70 0
-32 -71 0
-33 -72 0
-31 -73 0
-32 -74 0
-33 -75 0
-31 -82 0
-32 -83 0
-33 -84 0
-34 -40 0
-35 -41 0
-36 -42 0
-34 -43 0
-35 -44 0
-36 -45 0
-34 -58 0
-35 -59 0
-36 -60 0
-34 -70 0
-35 -71 0
-36 -72 0
-34 -73 0
-35 -74 0
-36 -75 0
-34 -76 0
-35 -77 0
-36 -78 0
-37 -43 0
-38 -44 0
-39 -45 0
-37 -67 0
-38 -68 0
-39 -69 0
-37 -85 0
-38 -86 0
-39 -87 0
-40 -46 0
-41 -47 0
-42 -48 0
-40 -61 0
-41 -62 0
-42 -63 0
-40 -64 0
-41 -65 0
-42 -66 0
-40 -67 0
-41 -68 0
-42 -69 0
-40 -70 0
-41 -71 0
-42 -72 0
-40 -85 0
-41 -86 0
-42 -87 0
-43 -46 0
-44 -47 0
-45 -48 0
-43 -52 0
-44 -53 0
-45 -54 0
-43 -67 0
-44 -68 0
-45 -69 0
-43 -88 0
-44 -89 0
-45 -90 0
-46 -70 0
-47 -71 0
-48 -72 0
-46 -82 0
-47 -83 0
-48 -84 0
-49 -55 0
-50 -56 0
-51 -57 0
-49 -58 0
-50 -59 0
-51 -60 0
-49 -64 0
-50 -65 0
-51 -66 0
-49 -67 0
-50 -68 0
-51 -69 0
-49 -85 0
-50 -86 0
-51 -87 0
-52 -61 0
-53 -62 0
-54 -63 0
-52 -76 0
-53 -77 0
-54 -78 0
-52 -88 0
-53 -89 0
-54 -90 0
-55 -58 0
-56 -59 0
-57 -60 0
-55 -67 0
-56 -68 0
-57 -69 0
-55 -76 0
-56 -77 0
-57 -78 0
-58 -70 0
-59 -71 0
-60 -72 0
-58 -76 0
-59 -77 0
-60 -78 0
-58 -82 0
-59 -83 0
-60 -84 0
-58 -88 0
-59 -89 0
-60 -90 0
-61 -67 0
-62 -68 0
-63 -69 0
-61 -76 0
-62 -77 0
-63 -78 0
-61 -79 0
-62 -80 0
-63 -81 0
-61 -82 0
-62 -83 0
-63 -84 0
-61 -85 0
-62 -86 0
-63 -87 0
-61 -88 0
-62 -89 0
-63 -90 0
-64 -79 0
-65 -80 0
-66 -81 0
-67 -70 0
-68 -71 0
-69 -72 0
-67 -79 0
-68 -80 0
-69 -81 0
-67 -85 0
-68 -86 0
-69 -87 0
-70 -88 0
-71 -89 0
-72 -90 0
-73 -76 0
-74 -77 0
-75 -78 0
-73 -79 0
-74 -80 0
-75 -81 0
-85 -88 0
-86 -89 0
-87 -90 0
